0 1391
1 1349
2 1349
3 1349
4 1335
5 1335
6 1299
7 1299
8 1299
9 1299
10 1272
11 1272
12 1272
13 1272
14 1270
15 1234
16 1234
17 1234
18 1234
19 1234
20 1225
21 1225
22 1225
23 1218
24 1218
25 1218
26 1218
27 1218
28 1218
29 1218
30 1207
31 1207
32 1192
33 1157
34 1157
35 1136
36 1136
37 1136
38 1136
39 1136
40 1136
41 1136
42 1136
43 1136
44 1136
45 1115
46 1115
47 1115
48 1067
49 1067
50 1067
51 1067
52 1067
53 1067
54 1067
55 1067
56 1067
57 1026
58 1026
59 1026
60 1026
61 1021
62 1009
63 978
64 978
65 978
66 978
67 978
68 978
69 978
70 978
71 978
72 978
73 978
74 978
75 978
76 978
77 978
78 978
79 978
80 978
81 978
82 978
83 978
84 926
85 926
86 926
87 926
88 926
89 926
90 926
91 912
92 912
93 912
94 904
95 902
96 902
97 873
98 852
99 843
100 843
101 843
102 843
103 813
104 791
105 791
106 791
107 791
108 785
109 779
110 779
111 779
112 759
113 759
114 759
115 746
116 740
117 731
118 731
119 717
120 695
121 695
122 695
123 695
124 695
125 695
126 695
127 695
128 695
129 695
130 695
131 695
132 695
133 695
134 695
135 695
136 695
137 695
138 695
139 695
140 695
141 695
142 695
143 695
144 695
145 695
146 695
147 695
148 695
149 695
150 695
151 695
152 695
153 695
154 695
155 695
156 695
157 695
158 695
159 695
160 695
161 695
162 695
163 695
164 695
165 695
166 695
167 695
168 695
169 695
170 695
171 695
172 695
173 695
174 695
175 695
176 695
177 695
178 695
179 695
180 695
181 695
182 695
183 695
184 695
185 695
186 695
187 695
188 695
189 695
190 695
191 695
192 695
193 695
194 695
195 695
196 695
197 695
198 695
199 695
200 695
201 695
202 695
203 695
204 695
205 695
206 695
207 695
208 695
209 695
210 695
211 695
212 695
213 695
214 695
215 695
216 695
217 695
218 695
219 695
220 695
221 695
222 695
223 695
224 695
225 695
226 695
227 695
228 695
229 695
230 695
231 695
232 695
233 695
234 695
235 695
236 695
237 695
238 695
239 695
240 695
241 695
242 695
243 695
244 695
245 695
246 695
247 695
248 695
249 695
250 695
251 695
252 695
253 695
254 695
255 695
256 695
257 695
258 695
259 695
260 695
261 695
262 695
263 695
264 695
265 695
266 695
267 695
268 695
269 695
270 695
271 695
272 695
273 695
274 695
275 695
276 695
277 695
278 695
279 695
280 695
281 695
282 695
283 695
284 695
285 695
286 695
287 695
288 695
289 695
290 695
291 695
292 695
293 695
294 695
295 695
296 695
297 695
298 695
299 695
300 695
301 695
302 695
303 695
304 695
305 695
306 695
307 695
308 695
309 695
310 695
311 695
312 695
313 695
314 695
315 695
316 695
317 695
318 695
319 695
320 695
321 695
322 695
323 695
324 695
325 695
326 695
327 695
328 695
329 695
330 695
331 695
332 695
333 695
334 695
335 695
336 695
337 695
338 695
339 695
340 695
341 695
342 695
343 695
344 695
345 695
346 695
347 695
348 695
349 695
350 695
351 695
352 695
353 695
354 695
355 695
356 695
357 695
358 695
359 695
360 695
361 695
362 695
363 695
364 695
365 695
366 695
367 695
368 695
369 695
370 695
371 695
372 695
373 695
374 695
375 695
376 695
377 695
378 695
379 695
380 695
381 695
382 695
383 695
384 695
385 695
386 695
387 695
388 695
389 695
390 695
391 695
392 695
393 695
394 695
395 695
396 695
397 695
398 695
399 695
400 695
401 695
402 695
403 695
404 695
405 695
406 695
407 695
408 695
409 695
410 695
411 695
412 695
413 695
414 695
415 695
416 695
417 695
418 695
419 695
420 695
421 695
422 695
423 695
424 695
425 695
426 695
427 695
428 695
429 695
430 695
431 695
432 695
433 695
434 695
435 695
436 695
437 695
438 695
439 695
440 695
441 695
442 695
443 695
444 695
445 695
446 695
447 695
448 695
449 695
450 695
451 695
452 695
453 695
454 695
455 695
456 695
457 695
458 695
459 695
460 695
461 695
462 695
463 695
464 695
465 695
466 695
467 695
468 695
469 695
470 695
471 695
472 695
473 695
474 695
475 695
476 695
477 695
478 695
479 695
480 695
481 695
482 695
483 695
484 695
485 695
486 695
487 695
488 695
489 695
490 695
491 695
492 695
493 695
494 695
495 695
496 695
497 695
498 695
499 695
500 695
501 695
502 695
503 695
504 695
505 695
506 695
507 695
508 695
509 695
510 695
511 695
512 695
513 695
514 695
515 695
516 695
517 695
518 695
519 695
520 695
521 695
522 695
523 695
524 695
525 695
526 695
527 695
528 695
529 695
530 695
531 695
532 695
533 695
534 695
535 695
536 695
537 695
538 695
539 695
540 695
541 695
542 695
543 695
544 695
545 695
546 695
547 695
548 695
549 695
550 695
551 695
552 695
553 695
554 695
555 695
556 695
557 695
558 695
559 695
560 695
561 695
562 695
563 695
564 695
565 695
566 695
567 695
568 695
569 695
570 695
571 695
572 695
573 695
574 695
575 695
576 695
577 695
578 695
579 695
580 695
581 695
582 695
583 695
584 695
585 695
586 695
587 695
588 695
589 695
590 695
591 695
592 695
593 695
594 695
595 695
596 695
597 695
598 695
599 695
600 695
601 695
602 695
603 695
604 695
605 695
606 695
607 695
608 695
609 695
610 695
611 695
612 695
613 695
614 695
615 695
616 695
617 695
618 695
619 695
620 695
621 695
622 695
623 695
624 695
625 695
626 695
627 695
628 695
629 695
630 695
631 695
632 695
633 695
634 695
635 695
636 695
637 695
638 695
639 695
640 695
641 695
642 695
643 695
644 695
645 695
646 695
647 695
648 695
649 695
650 695
651 695
652 695
653 695
654 695
655 695
656 695
657 695
658 695
659 695
660 695
661 695
662 695
663 695
664 695
665 695
666 695
667 695
668 695
669 695
670 695
671 695
672 695
673 695
674 695
675 695
676 695
677 695
678 695
679 695
680 695
681 695
682 695
683 695
684 695
685 695
686 695
687 695
688 695
689 695
690 695
691 695
692 695
693 695
694 695
695 695
696 695
697 695
698 695
699 695
700 695
701 695
702 695
703 695
704 695
705 695
706 695
707 695
708 695
709 695
710 695
711 695
712 695
713 695
714 695
715 695
716 695
717 695
718 695
719 695
720 695
721 695
722 695
723 695
724 695
725 695
726 695
727 695
728 695
729 695
730 695
731 695
732 695
733 695
734 695
735 695
736 695
737 695
738 695
739 695
740 695
741 695
742 695
743 695
744 695
745 695
746 695
747 695
748 695
749 695
750 695
751 695
752 695
753 695
754 695
755 695
756 695
757 695
758 695
759 695
760 695
761 695
762 695
763 695
764 695
765 695
766 695
767 695
768 695
769 695
770 695
771 695
772 695
773 695
774 695
775 695
776 695
777 695
778 695
779 695
780 695
781 695
782 695
783 695
784 695
785 695
786 695
787 695
788 695
789 695
790 695
791 695
792 695
793 695
794 695
795 695
796 695
797 695
798 695
799 695
800 695
801 695
802 695
803 695
804 695
805 695
806 695
807 695
808 695
809 695
810 695
811 695
812 695
813 695
814 695
815 695
816 695
817 695
818 695
819 695
820 695
821 695
822 695
823 695
824 695
825 695
826 695
827 695
828 695
829 695
830 695
831 695
832 695
833 695
834 695
835 695
836 695
837 695
838 695
839 695
840 695
841 695
842 695
843 695
844 695
845 695
846 695
847 695
848 695
849 695
850 695
851 695
852 695
853 695
854 695
855 695
856 695
857 695
858 695
859 695
860 695
861 695
862 695
863 695
864 695
865 695
866 695
867 695
868 695
869 695
870 695
871 695
872 695
873 695
874 695
875 695
876 695
877 695
878 695
879 695
880 695
881 695
882 695
883 695
884 695
885 695
886 695
887 695
888 695
889 695
890 695
891 695
892 695
893 695
894 695
895 695
896 695
897 695
898 695
899 695
900 695
901 695
902 695
903 695
904 695
905 695
906 695
907 695
908 695
909 695
910 695
911 695
912 695
913 695
914 695
915 695
916 695
917 695
918 695
919 695
920 695
921 695
922 695
923 695
924 695
925 695
926 695
927 695
928 695
929 695
930 695
931 695
932 695
933 695
934 695
935 695
936 695
937 695
938 695
939 695
940 695
941 695
942 695
943 695
944 695
945 695
946 695
947 695
948 695
949 695
950 695
951 695
952 695
953 695
954 695
955 695
956 695
957 695
958 695
959 695
960 695
961 695
962 695
963 695
964 695
965 695
966 695
967 695
968 695
969 695
970 695
971 695
972 695
973 695
974 695
975 695
976 695
977 695
978 695
979 695
980 695
981 695
982 695
983 695
984 695
985 695
986 695
987 695
988 695
989 695
990 695
991 695
992 695
993 695
994 695
995 695
996 695
997 695
998 695
999 695
